p cnf 52 350
-4 -2 6 0
-4 -3 7 0
-8 -1 9 0
-8 -3 11 0
-4 -12 -5 0
-8 -14 -10 0
-12 17 0
-13 18 0
-14 19 0
-15 20 0
-1 -18 0
-2 -20 0
-4 -14 0
-4 -15 0
-4 -16 0
-8 -12 0
-8 -13 0
-8 -16 0
1 18 0
2 20 0
4 5 0
8 10 0
12 -17 0
14 -19 0
4 -6 0
4 -7 0
8 -9 0
8 -11 0
2 -6 0
3 -7 0
1 -9 0
3 -11 0
4 8 0
12 13 14 15 16 0
1 2 3 0
-4 -8 0
-8 -4 0
-12 -13 0
-12 -14 0
-12 -15 0
-12 -16 0
-13 -12 0
-13 -14 0
-13 -15 0
-13 -16 0
-14 -12 0
-14 -13 0
-14 -15 0
-14 -16 0
-15 -12 0
-15 -13 0
-15 -14 0
-15 -16 0
-16 -12 0
-16 -13 0
-16 -14 0
-16 -15 0
-1 -2 0
-1 -3 0
-2 -1 0
-2 -3 0
-3 -1 0
-3 -2 0
-4 -13 0
-8 -15 0
-4 -1 0
-8 -2 0
-13 -1 0
-15 -2 0
-16 -3 0
-26 -22 28 0
-26 -23 29 0
-26 -24 30 0
-26 -25 31 0
-32 -21 33 0
-32 -23 34 0
-32 -24 35 0
-32 -25 36 0
-37 -21 38 0
-37 -22 39 0
-37 -24 40 0
-37 -25 41 0
-42 -21 43 0
-42 -22 44 0
-42 -23 45 0
-42 -25 46 0
-26 -52 -27 0
-32 -47 -33 0
-32 -50 -35 0
-32 -51 -36 0
-37 -51 -41 0
-42 -48 -44 0
-42 -49 -45 0
-42 -51 -46 0
-26 -48 0
-26 -49 0
-26 -50 0
-26 -51 0
-32 -52 0
-32 -47 5 0
-32 -49 0
-32 -50 6 0
-32 -51 7 0
-37 -52 0
-37 -47 0
-37 -48 0
-37 -50 0
-42 -52 0
-42 -47 0
-42 -48 9 0
-42 -49 10 0
-42 -51 11 0
-26 17 0
-32 18 0
-37 19 0
-42 20 0
-21 17 0
-22 18 0
-23 19 0
-24 20 0
26 27 0
32 -5 33 0
32 -6 35 0
32 -7 36 0
37 41 0
42 -9 44 0
42 -10 45 0
42 -11 46 0
26 -28 0
26 -29 0
26 -30 0
26 -31 0
32 5 -33 0
32 -34 0
32 6 -35 0
32 7 -36 0
37 -38 0
37 -39 0
37 -40 0
42 -43 0
42 9 -44 0
42 10 -45 0
42 11 -46 0
22 -28 0
23 -29 0
24 -30 0
25 -31 0
21 5 -33 0
23 -34 0
24 6 -35 0
25 7 -36 0
21 -38 0
22 -39 0
24 -40 0
21 -43 0
22 9 -44 0
23 10 -45 0
25 11 -46 0
26 32 37 42 0
52 47 48 49 50 51 0
21 22 23 24 25 0
-26 -32 0
-26 -37 0
-26 -42 0
-32 -26 0
-32 -37 0
-32 -42 0
-37 -26 0
-37 -32 0
-37 -42 0
-42 -26 0
-42 -32 0
-42 -37 0
-52 -47 0
-52 -48 0
-52 -49 0
-52 -50 0
-52 -51 0
-47 -52 0
-47 -48 0
-47 -49 0
-47 -50 0
-47 -51 0
-48 -52 0
-48 -47 0
-48 -49 0
-48 -50 0
-48 -51 0
-49 -52 0
-49 -47 0
-49 -48 0
-49 -50 0
-49 -51 0
-50 -52 0
-50 -47 0
-50 -48 0
-50 -49 0
-50 -51 0
-51 -52 0
-51 -47 0
-51 -48 0
-51 -49 0
-51 -50 0
-21 -22 0
-21 -23 0
-21 -24 0
-21 -25 0
-22 -21 0
-22 -23 0
-22 -24 0
-22 -25 0
-23 -21 0
-23 -22 0
-23 -24 0
-23 -25 0
-24 -21 0
-24 -22 0
-24 -23 0
-24 -25 0
-25 -21 0
-25 -22 0
-25 -23 0
-25 -24 0
-26 -47 0
-32 -48 0
-37 -49 0
-42 -50 0
-26 -21 0
-32 -22 0
-37 -23 0
-42 -24 0
-47 -21 0
-48 -22 0
-49 -23 0
-50 -24 0
-51 -25 0
-6 -9 0
-9 -6 0
-5 -6 0
-5 -7 0
-6 -5 0
-6 -7 0
-7 -5 0
-7 -6 0
-9 -10 0
-9 -11 0
-10 -9 0
-10 -11 0
-11 -9 0
-11 -10 0
-5 -17 0
-6 -20 0
-9 -18 0
-10 -19 0
-28 -33 0
-29 -38 0
-30 -43 0
-33 -28 0
-34 -39 0
-35 -44 0
-38 -29 0
-39 -34 0
-40 -45 0
-43 -30 0
-44 -35 0
-45 -40 0
-28 -39 0
-28 -44 0
-29 -34 0
-29 -45 0
-30 -35 0
-30 -40 0
-33 -38 0
-33 -43 0
-34 -29 0
-34 -45 0
-35 -30 0
-35 -40 0
-38 -33 0
-38 -43 0
-39 -28 0
-39 -44 0
-40 -30 0
-40 -35 0
-43 -33 0
-43 -38 0
-44 -28 0
-44 -39 0
-45 -29 0
-45 -34 0
-27 -28 0
-27 -29 0
-27 -30 0
-27 -31 0
-28 -27 0
-28 -29 0
-28 -30 0
-28 -31 0
-29 -27 0
-29 -28 0
-29 -30 0
-29 -31 0
-30 -27 0
-30 -28 0
-30 -29 0
-30 -31 0
-31 -27 0
-31 -28 0
-31 -29 0
-31 -30 0
-33 -34 0
-33 -35 0
-33 -36 0
-34 -33 0
-34 -35 0
-34 -36 0
-35 -33 0
-35 -34 0
-35 -36 0
-36 -33 0
-36 -34 0
-36 -35 0
-38 -39 0
-38 -40 0
-38 -41 -46 0
-39 -38 -46 0
-39 -40 -46 0
-39 -41 -46 0
-40 -38 -46 0
-40 -39 -46 0
-40 -41 -46 0
-41 -38 -46 0
-41 -39 -46 0
-41 -40 -46 0
-43 -44 -46 0
-43 -45 -46 0
-43 -46 0
-44 -43 -46 0
-44 -45 -46 0
-44 -46 0
-45 -46 -43 0
-46 -45 -44 0
-45 -46 0
-46 -43 0
-46 -44 0
-46 -45 0
